(set-info :smt-lib-version 2.6)
(set-logic QF_NIA)
(set-info :source |
Generated by: Cristina Borralleras, Daniel Larraz, Albert Oliveras, Enric Rodriguez-Carbonell, Albert Rubio
Generated on: 2017-04-27
Generator: VeryMax
Application: Termination proving
Target solver: barcelogic
|)
(set-info :license "https://creativecommons.org/licenses/by/4.0/")
(set-info :category "industrial")
(set-info :status unknown)
(declare-fun Nl2x_5^01 () Int)
(declare-fun Nl2y_6^01 () Int)
(declare-fun Nl2x_5^02 () Int)
(declare-fun Nl2y_6^02 () Int)
(declare-fun Nl2x_5^03 () Int)
(declare-fun Nl2y_6^03 () Int)
(declare-fun lam0n2 () Int)
(declare-fun lam0n3 () Int)
(declare-fun lam0n4 () Int)
(declare-fun lam0n5 () Int)
(declare-fun UndefCntr0_CT () Int)
(declare-fun Nl2CT1 () Int)
(declare-fun Nl2CT2 () Int)
(declare-fun Nl2CT3 () Int)
(declare-fun lam0n0 () Int)
(declare-fun UndefCntr0_x_5^0 () Int)
(declare-fun UndefCntr0_y_6^0 () Int)
(declare-fun lam0n1 () Int)
(declare-fun UndefCntr0_undef22 () Int)
(declare-fun lam1n2 () Int)
(declare-fun lam1n3 () Int)
(declare-fun lam1n4 () Int)
(declare-fun lam1n5 () Int)
(declare-fun lam1n0 () Int)
(declare-fun lam1n1 () Int)
(declare-fun lam2n2 () Int)
(declare-fun lam2n3 () Int)
(declare-fun lam2n4 () Int)
(declare-fun lam2n5 () Int)
(declare-fun lam2n0 () Int)
(declare-fun lam2n1 () Int)
(declare-fun lam3n2 () Int)
(declare-fun lam3n3 () Int)
(declare-fun lam3n4 () Int)
(declare-fun lam3n5 () Int)
(declare-fun lam3n0 () Int)
(declare-fun lam3n1 () Int)
(declare-fun lam4n0 () Int)
(declare-fun lam4n2 () Int)
(declare-fun lam4n3 () Int)
(declare-fun lam4n4 () Int)
(declare-fun lam4n5 () Int)
(declare-fun UndefCntr1_CT () Int)
(declare-fun lam4n1 () Int)
(declare-fun UndefCntr1_x_5^0 () Int)
(declare-fun UndefCntr1_y_6^0 () Int)
(declare-fun UndefCntr1_undef30 () Int)
(declare-fun lam5n0 () Int)
(declare-fun lam5n2 () Int)
(declare-fun lam5n3 () Int)
(declare-fun lam5n4 () Int)
(declare-fun lam5n5 () Int)
(declare-fun lam5n1 () Int)
(declare-fun lam6n0 () Int)
(declare-fun lam6n2 () Int)
(declare-fun lam6n3 () Int)
(declare-fun lam6n4 () Int)
(declare-fun lam6n5 () Int)
(declare-fun lam6n1 () Int)
(declare-fun lam7n0 () Int)
(declare-fun lam7n2 () Int)
(declare-fun lam7n3 () Int)
(declare-fun lam7n4 () Int)
(declare-fun lam7n5 () Int)
(declare-fun lam7n1 () Int)
(declare-fun lam8n0 () Int)
(declare-fun lam8n2 () Int)
(declare-fun lam8n3 () Int)
(declare-fun lam8n4 () Int)
(declare-fun lam8n5 () Int)
(declare-fun UndefCntr2_CT () Int)
(declare-fun lam8n1 () Int)
(declare-fun UndefCntr2_x_5^0 () Int)
(declare-fun UndefCntr2_y_6^0 () Int)
(declare-fun UndefCntr2_undef30 () Int)
(declare-fun lam9n0 () Int)
(declare-fun lam9n2 () Int)
(declare-fun lam9n3 () Int)
(declare-fun lam9n4 () Int)
(declare-fun lam9n5 () Int)
(declare-fun lam9n1 () Int)
(declare-fun lam10n0 () Int)
(declare-fun lam10n2 () Int)
(declare-fun lam10n3 () Int)
(declare-fun lam10n4 () Int)
(declare-fun lam10n5 () Int)
(declare-fun lam10n1 () Int)
(declare-fun lam11n0 () Int)
(declare-fun lam11n2 () Int)
(declare-fun lam11n3 () Int)
(declare-fun lam11n4 () Int)
(declare-fun lam11n5 () Int)
(declare-fun lam11n1 () Int)
(declare-fun lam12n0 () Int)
(declare-fun lam12n2 () Int)
(declare-fun lam12n3 () Int)
(declare-fun lam12n4 () Int)
(declare-fun lam12n5 () Int)
(declare-fun UndefCntr3_CT () Int)
(declare-fun UndefCntr3_x_5^0 () Int)
(declare-fun UndefCntr3_y_6^0 () Int)
(declare-fun lam12n1 () Int)
(declare-fun UndefCntr3_undef50 () Int)
(declare-fun lam13n0 () Int)
(declare-fun lam13n2 () Int)
(declare-fun lam13n3 () Int)
(declare-fun lam13n4 () Int)
(declare-fun lam13n5 () Int)
(declare-fun lam13n1 () Int)
(declare-fun lam14n0 () Int)
(declare-fun lam14n2 () Int)
(declare-fun lam14n3 () Int)
(declare-fun lam14n4 () Int)
(declare-fun lam14n5 () Int)
(declare-fun lam14n1 () Int)
(declare-fun lam15n0 () Int)
(declare-fun lam15n2 () Int)
(declare-fun lam15n3 () Int)
(declare-fun lam15n4 () Int)
(declare-fun lam15n5 () Int)
(declare-fun lam15n1 () Int)
(declare-fun lam16n0 () Int)
(declare-fun lam16n1 () Int)
(declare-fun lam16n2 () Int)
(declare-fun lam16n3 () Int)
(declare-fun lam16n4 () Int)
(declare-fun lam16n5 () Int)
(declare-fun UndefCntr4_CT () Int)
(declare-fun UndefCntr4_x_5^0 () Int)
(declare-fun UndefCntr4_y_6^0 () Int)
(declare-fun UndefCntr4_undef58 () Int)
(declare-fun lam17n0 () Int)
(declare-fun lam17n1 () Int)
(declare-fun lam17n2 () Int)
(declare-fun lam17n3 () Int)
(declare-fun lam17n4 () Int)
(declare-fun lam17n5 () Int)
(declare-fun lam18n0 () Int)
(declare-fun lam18n1 () Int)
(declare-fun lam18n2 () Int)
(declare-fun lam18n3 () Int)
(declare-fun lam18n4 () Int)
(declare-fun lam18n5 () Int)
(declare-fun lam19n0 () Int)
(declare-fun lam19n1 () Int)
(declare-fun lam19n2 () Int)
(declare-fun lam19n3 () Int)
(declare-fun lam19n4 () Int)
(declare-fun lam19n5 () Int)
(declare-fun lam20n0 () Int)
(declare-fun lam20n1 () Int)
(declare-fun lam20n2 () Int)
(declare-fun lam20n3 () Int)
(declare-fun lam20n4 () Int)
(declare-fun lam20n5 () Int)
(declare-fun UndefCntr5_CT () Int)
(declare-fun UndefCntr5_x_5^0 () Int)
(declare-fun UndefCntr5_y_6^0 () Int)
(declare-fun UndefCntr5_undef58 () Int)
(declare-fun lam21n0 () Int)
(declare-fun lam21n1 () Int)
(declare-fun lam21n2 () Int)
(declare-fun lam21n3 () Int)
(declare-fun lam21n4 () Int)
(declare-fun lam21n5 () Int)
(declare-fun lam22n0 () Int)
(declare-fun lam22n1 () Int)
(declare-fun lam22n2 () Int)
(declare-fun lam22n3 () Int)
(declare-fun lam22n4 () Int)
(declare-fun lam22n5 () Int)
(declare-fun lam23n0 () Int)
(declare-fun lam23n1 () Int)
(declare-fun lam23n2 () Int)
(declare-fun lam23n3 () Int)
(declare-fun lam23n4 () Int)
(declare-fun lam23n5 () Int)
(declare-fun x_5^0 () Int)
(declare-fun y_6^0 () Int)
(declare-fun FV_x_5^0_6 () Int)
(declare-fun FV_y_6^0_6 () Int)
(declare-fun FV_undef22_0 () Int)
(declare-fun FV_x_5^0_0 () Int)
(declare-fun FV_y_6^0_0 () Int)
(declare-fun FV_undef30_1 () Int)
(declare-fun FV_x_5^0_1 () Int)
(declare-fun FV_y_6^0_1 () Int)
(declare-fun FV_undef30_2 () Int)
(declare-fun FV_x_5^0_2 () Int)
(declare-fun FV_y_6^0_2 () Int)
(declare-fun FV_undef50_3 () Int)
(declare-fun FV_x_5^0_3 () Int)
(declare-fun FV_y_6^0_3 () Int)
(declare-fun FV_undef58_4 () Int)
(declare-fun FV_x_5^0_4 () Int)
(declare-fun FV_y_6^0_4 () Int)
(declare-fun FV_undef58_5 () Int)
(declare-fun FV_x_5^0_5 () Int)
(declare-fun FV_y_6^0_5 () Int)
(declare-fun lam27n0 () Int)
(declare-fun lam27n1 () Int)
(declare-fun lam27n2 () Int)
(declare-fun lam27n3 () Int)
(declare-fun FV_x_5^0_7 () Int)
(declare-fun FV_y_6^0_7 () Int)
(declare-fun FV_undef22_7 () Int)
(declare-fun FV_undef30_7 () Int)
(declare-fun FV_undef50_7 () Int)
(declare-fun FV_undef58_7 () Int)
(assert ( and ( <= ( - 1 ) Nl2x_5^01 ) ( <= Nl2x_5^01 1 ) ( <= ( - 1 ) Nl2y_6^01 ) ( <= Nl2y_6^01 1 ) ( <= ( - 1 ) Nl2x_5^02 ) ( <= Nl2x_5^02 1 ) ( <= ( - 1 ) Nl2y_6^02 ) ( <= Nl2y_6^02 1 ) ( <= ( - 1 ) Nl2x_5^03 ) ( <= Nl2x_5^03 1 ) ( <= ( - 1 ) Nl2y_6^03 ) ( <= Nl2y_6^03 1 ) ))
(assert ( or ( and ( >= lam0n2 0 ) ( >= lam0n3 0 ) ( >= lam0n4 0 ) ( >= lam0n5 0 ) ( > ( + ( * UndefCntr0_CT lam0n2 ) ( * Nl2CT1 lam0n3 ) ( * Nl2CT2 lam0n4 ) ( * Nl2CT3 lam0n5 ) ( - 1 ) ) 0 ) ( = ( + ( * 1 lam0n0 ) ( * UndefCntr0_x_5^0 lam0n2 ) ( * Nl2x_5^01 lam0n3 ) ( * Nl2x_5^02 lam0n4 ) ( * Nl2x_5^03 lam0n5 ) ) 0 ) ( = ( + ( * ( - 1 ) lam0n0 ) ( * UndefCntr0_y_6^0 lam0n2 ) ( * Nl2y_6^01 lam0n3 ) ( * Nl2y_6^02 lam0n4 ) ( * Nl2y_6^03 lam0n5 ) ) 0 ) ( = ( + ( * 1 lam0n1 ) ( * UndefCntr0_undef22 lam0n2 ) ) 0 ) ) ( and ( >= lam1n2 0 ) ( >= lam1n3 0 ) ( >= lam1n4 0 ) ( >= lam1n5 0 ) ( > ( + ( * UndefCntr0_CT lam1n2 ) ( * Nl2CT1 lam1n3 ) ( * Nl2CT2 lam1n4 ) ( * Nl2CT3 lam1n5 ) ( - 1 Nl2CT1 ) ) 0 ) ( = ( + ( * 1 lam1n0 ) ( * UndefCntr0_x_5^0 lam1n2 ) ( * Nl2x_5^01 lam1n3 ) ( * Nl2x_5^02 lam1n4 ) ( * Nl2x_5^03 lam1n5 ) ( - ( + 0 Nl2x_5^01 ) ) ) 0 ) ( = ( + ( * ( - 1 ) lam1n0 ) ( * UndefCntr0_y_6^0 lam1n2 ) ( * Nl2y_6^01 lam1n3 ) ( * Nl2y_6^02 lam1n4 ) ( * Nl2y_6^03 lam1n5 ) ( - ( + 0 Nl2y_6^01 ) ) ) 0 ) ( = ( + ( * 1 lam1n1 ) ( * UndefCntr0_undef22 lam1n2 ) ) 0 ) ) ))
(assert ( or ( and ( >= lam0n2 0 ) ( >= lam0n3 0 ) ( >= lam0n4 0 ) ( >= lam0n5 0 ) ( > ( + ( * UndefCntr0_CT lam0n2 ) ( * Nl2CT1 lam0n3 ) ( * Nl2CT2 lam0n4 ) ( * Nl2CT3 lam0n5 ) ( - 1 ) ) 0 ) ( = ( + ( * 1 lam0n0 ) ( * UndefCntr0_x_5^0 lam0n2 ) ( * Nl2x_5^01 lam0n3 ) ( * Nl2x_5^02 lam0n4 ) ( * Nl2x_5^03 lam0n5 ) ) 0 ) ( = ( + ( * ( - 1 ) lam0n0 ) ( * UndefCntr0_y_6^0 lam0n2 ) ( * Nl2y_6^01 lam0n3 ) ( * Nl2y_6^02 lam0n4 ) ( * Nl2y_6^03 lam0n5 ) ) 0 ) ( = ( + ( * 1 lam0n1 ) ( * UndefCntr0_undef22 lam0n2 ) ) 0 ) ) ( and ( >= lam2n2 0 ) ( >= lam2n3 0 ) ( >= lam2n4 0 ) ( >= lam2n5 0 ) ( > ( + ( * UndefCntr0_CT lam2n2 ) ( * Nl2CT1 lam2n3 ) ( * Nl2CT2 lam2n4 ) ( * Nl2CT3 lam2n5 ) ( - 1 Nl2CT2 ) ) 0 ) ( = ( + ( * 1 lam2n0 ) ( * UndefCntr0_x_5^0 lam2n2 ) ( * Nl2x_5^01 lam2n3 ) ( * Nl2x_5^02 lam2n4 ) ( * Nl2x_5^03 lam2n5 ) ( - ( + 0 Nl2x_5^02 ) ) ) 0 ) ( = ( + ( * ( - 1 ) lam2n0 ) ( * UndefCntr0_y_6^0 lam2n2 ) ( * Nl2y_6^01 lam2n3 ) ( * Nl2y_6^02 lam2n4 ) ( * Nl2y_6^03 lam2n5 ) ( - ( + 0 Nl2y_6^02 ) ) ) 0 ) ( = ( + ( * 1 lam2n1 ) ( * UndefCntr0_undef22 lam2n2 ) ) 0 ) ) ))
(assert ( or ( and ( >= lam0n2 0 ) ( >= lam0n3 0 ) ( >= lam0n4 0 ) ( >= lam0n5 0 ) ( > ( + ( * UndefCntr0_CT lam0n2 ) ( * Nl2CT1 lam0n3 ) ( * Nl2CT2 lam0n4 ) ( * Nl2CT3 lam0n5 ) ( - 1 ) ) 0 ) ( = ( + ( * 1 lam0n0 ) ( * UndefCntr0_x_5^0 lam0n2 ) ( * Nl2x_5^01 lam0n3 ) ( * Nl2x_5^02 lam0n4 ) ( * Nl2x_5^03 lam0n5 ) ) 0 ) ( = ( + ( * ( - 1 ) lam0n0 ) ( * UndefCntr0_y_6^0 lam0n2 ) ( * Nl2y_6^01 lam0n3 ) ( * Nl2y_6^02 lam0n4 ) ( * Nl2y_6^03 lam0n5 ) ) 0 ) ( = ( + ( * 1 lam0n1 ) ( * UndefCntr0_undef22 lam0n2 ) ) 0 ) ) ( and ( >= lam3n2 0 ) ( >= lam3n3 0 ) ( >= lam3n4 0 ) ( >= lam3n5 0 ) ( > ( + ( * UndefCntr0_CT lam3n2 ) ( * Nl2CT1 lam3n3 ) ( * Nl2CT2 lam3n4 ) ( * Nl2CT3 lam3n5 ) ( - 1 Nl2CT3 ) ) 0 ) ( = ( + ( * 1 lam3n0 ) ( * UndefCntr0_x_5^0 lam3n2 ) ( * Nl2x_5^01 lam3n3 ) ( * Nl2x_5^02 lam3n4 ) ( * Nl2x_5^03 lam3n5 ) ( - ( + 0 Nl2x_5^03 ) ) ) 0 ) ( = ( + ( * ( - 1 ) lam3n0 ) ( * UndefCntr0_y_6^0 lam3n2 ) ( * Nl2y_6^01 lam3n3 ) ( * Nl2y_6^02 lam3n4 ) ( * Nl2y_6^03 lam3n5 ) ( - ( + 0 Nl2y_6^03 ) ) ) 0 ) ( = ( + ( * 1 lam3n1 ) ( * UndefCntr0_undef22 lam3n2 ) ) 0 ) ) ))
(assert ( or ( and ( >= lam4n0 0 ) ( >= lam4n2 0 ) ( >= lam4n3 0 ) ( >= lam4n4 0 ) ( >= lam4n5 0 ) ( > ( + ( * 1 lam4n0 ) ( * UndefCntr1_CT lam4n2 ) ( * Nl2CT1 lam4n3 ) ( * Nl2CT2 lam4n4 ) ( * Nl2CT3 lam4n5 ) ( - 1 ) ) 0 ) ( = ( + ( * 1 lam4n1 ) ( * UndefCntr1_x_5^0 lam4n2 ) ( * Nl2x_5^01 lam4n3 ) ( * Nl2x_5^02 lam4n4 ) ( * Nl2x_5^03 lam4n5 ) ) 0 ) ( = ( + ( * ( - 1 ) lam4n1 ) ( * UndefCntr1_y_6^0 lam4n2 ) ( * Nl2y_6^01 lam4n3 ) ( * Nl2y_6^02 lam4n4 ) ( * Nl2y_6^03 lam4n5 ) ) 0 ) ( = ( + ( * 1 lam4n0 ) ( * UndefCntr1_undef30 lam4n2 ) ) 0 ) ) ( and ( >= lam5n0 0 ) ( >= lam5n2 0 ) ( >= lam5n3 0 ) ( >= lam5n4 0 ) ( >= lam5n5 0 ) ( > ( + ( * 1 lam5n0 ) ( * UndefCntr1_CT lam5n2 ) ( * Nl2CT1 lam5n3 ) ( * Nl2CT2 lam5n4 ) ( * Nl2CT3 lam5n5 ) ( - 1 ( + Nl2CT1 ( * Nl2x_5^01 1 ) ) ) ) 0 ) ( = ( + ( * 1 lam5n1 ) ( * UndefCntr1_x_5^0 lam5n2 ) ( * Nl2x_5^01 lam5n3 ) ( * Nl2x_5^02 lam5n4 ) ( * Nl2x_5^03 lam5n5 ) ( - ( + 0 ( * Nl2x_5^01 1 ) ) ) ) 0 ) ( = ( + ( * ( - 1 ) lam5n1 ) ( * UndefCntr1_y_6^0 lam5n2 ) ( * Nl2y_6^01 lam5n3 ) ( * Nl2y_6^02 lam5n4 ) ( * Nl2y_6^03 lam5n5 ) ( - ( + 0 Nl2y_6^01 ) ) ) 0 ) ( = ( + ( * 1 lam5n0 ) ( * UndefCntr1_undef30 lam5n2 ) ) 0 ) ) ))
(assert ( or ( and ( >= lam4n0 0 ) ( >= lam4n2 0 ) ( >= lam4n3 0 ) ( >= lam4n4 0 ) ( >= lam4n5 0 ) ( > ( + ( * 1 lam4n0 ) ( * UndefCntr1_CT lam4n2 ) ( * Nl2CT1 lam4n3 ) ( * Nl2CT2 lam4n4 ) ( * Nl2CT3 lam4n5 ) ( - 1 ) ) 0 ) ( = ( + ( * 1 lam4n1 ) ( * UndefCntr1_x_5^0 lam4n2 ) ( * Nl2x_5^01 lam4n3 ) ( * Nl2x_5^02 lam4n4 ) ( * Nl2x_5^03 lam4n5 ) ) 0 ) ( = ( + ( * ( - 1 ) lam4n1 ) ( * UndefCntr1_y_6^0 lam4n2 ) ( * Nl2y_6^01 lam4n3 ) ( * Nl2y_6^02 lam4n4 ) ( * Nl2y_6^03 lam4n5 ) ) 0 ) ( = ( + ( * 1 lam4n0 ) ( * UndefCntr1_undef30 lam4n2 ) ) 0 ) ) ( and ( >= lam6n0 0 ) ( >= lam6n2 0 ) ( >= lam6n3 0 ) ( >= lam6n4 0 ) ( >= lam6n5 0 ) ( > ( + ( * 1 lam6n0 ) ( * UndefCntr1_CT lam6n2 ) ( * Nl2CT1 lam6n3 ) ( * Nl2CT2 lam6n4 ) ( * Nl2CT3 lam6n5 ) ( - 1 ( + Nl2CT2 ( * Nl2x_5^02 1 ) ) ) ) 0 ) ( = ( + ( * 1 lam6n1 ) ( * UndefCntr1_x_5^0 lam6n2 ) ( * Nl2x_5^01 lam6n3 ) ( * Nl2x_5^02 lam6n4 ) ( * Nl2x_5^03 lam6n5 ) ( - ( + 0 ( * Nl2x_5^02 1 ) ) ) ) 0 ) ( = ( + ( * ( - 1 ) lam6n1 ) ( * UndefCntr1_y_6^0 lam6n2 ) ( * Nl2y_6^01 lam6n3 ) ( * Nl2y_6^02 lam6n4 ) ( * Nl2y_6^03 lam6n5 ) ( - ( + 0 Nl2y_6^02 ) ) ) 0 ) ( = ( + ( * 1 lam6n0 ) ( * UndefCntr1_undef30 lam6n2 ) ) 0 ) ) ))
(assert ( or ( and ( >= lam4n0 0 ) ( >= lam4n2 0 ) ( >= lam4n3 0 ) ( >= lam4n4 0 ) ( >= lam4n5 0 ) ( > ( + ( * 1 lam4n0 ) ( * UndefCntr1_CT lam4n2 ) ( * Nl2CT1 lam4n3 ) ( * Nl2CT2 lam4n4 ) ( * Nl2CT3 lam4n5 ) ( - 1 ) ) 0 ) ( = ( + ( * 1 lam4n1 ) ( * UndefCntr1_x_5^0 lam4n2 ) ( * Nl2x_5^01 lam4n3 ) ( * Nl2x_5^02 lam4n4 ) ( * Nl2x_5^03 lam4n5 ) ) 0 ) ( = ( + ( * ( - 1 ) lam4n1 ) ( * UndefCntr1_y_6^0 lam4n2 ) ( * Nl2y_6^01 lam4n3 ) ( * Nl2y_6^02 lam4n4 ) ( * Nl2y_6^03 lam4n5 ) ) 0 ) ( = ( + ( * 1 lam4n0 ) ( * UndefCntr1_undef30 lam4n2 ) ) 0 ) ) ( and ( >= lam7n0 0 ) ( >= lam7n2 0 ) ( >= lam7n3 0 ) ( >= lam7n4 0 ) ( >= lam7n5 0 ) ( > ( + ( * 1 lam7n0 ) ( * UndefCntr1_CT lam7n2 ) ( * Nl2CT1 lam7n3 ) ( * Nl2CT2 lam7n4 ) ( * Nl2CT3 lam7n5 ) ( - 1 ( + Nl2CT3 ( * Nl2x_5^03 1 ) ) ) ) 0 ) ( = ( + ( * 1 lam7n1 ) ( * UndefCntr1_x_5^0 lam7n2 ) ( * Nl2x_5^01 lam7n3 ) ( * Nl2x_5^02 lam7n4 ) ( * Nl2x_5^03 lam7n5 ) ( - ( + 0 ( * Nl2x_5^03 1 ) ) ) ) 0 ) ( = ( + ( * ( - 1 ) lam7n1 ) ( * UndefCntr1_y_6^0 lam7n2 ) ( * Nl2y_6^01 lam7n3 ) ( * Nl2y_6^02 lam7n4 ) ( * Nl2y_6^03 lam7n5 ) ( - ( + 0 Nl2y_6^03 ) ) ) 0 ) ( = ( + ( * 1 lam7n0 ) ( * UndefCntr1_undef30 lam7n2 ) ) 0 ) ) ))
(assert ( or ( and ( >= lam8n0 0 ) ( >= lam8n2 0 ) ( >= lam8n3 0 ) ( >= lam8n4 0 ) ( >= lam8n5 0 ) ( > ( + ( * 1 lam8n0 ) ( * UndefCntr2_CT lam8n2 ) ( * Nl2CT1 lam8n3 ) ( * Nl2CT2 lam8n4 ) ( * Nl2CT3 lam8n5 ) ( - 1 ) ) 0 ) ( = ( + ( * 1 lam8n1 ) ( * UndefCntr2_x_5^0 lam8n2 ) ( * Nl2x_5^01 lam8n3 ) ( * Nl2x_5^02 lam8n4 ) ( * Nl2x_5^03 lam8n5 ) ) 0 ) ( = ( + ( * ( - 1 ) lam8n1 ) ( * UndefCntr2_y_6^0 lam8n2 ) ( * Nl2y_6^01 lam8n3 ) ( * Nl2y_6^02 lam8n4 ) ( * Nl2y_6^03 lam8n5 ) ) 0 ) ( = ( + ( * ( - 1 ) lam8n0 ) ( * UndefCntr2_undef30 lam8n2 ) ) 0 ) ) ( and ( >= lam9n0 0 ) ( >= lam9n2 0 ) ( >= lam9n3 0 ) ( >= lam9n4 0 ) ( >= lam9n5 0 ) ( > ( + ( * 1 lam9n0 ) ( * UndefCntr2_CT lam9n2 ) ( * Nl2CT1 lam9n3 ) ( * Nl2CT2 lam9n4 ) ( * Nl2CT3 lam9n5 ) ( - 1 ( + Nl2CT1 ( * Nl2x_5^01 1 ) ) ) ) 0 ) ( = ( + ( * 1 lam9n1 ) ( * UndefCntr2_x_5^0 lam9n2 ) ( * Nl2x_5^01 lam9n3 ) ( * Nl2x_5^02 lam9n4 ) ( * Nl2x_5^03 lam9n5 ) ( - ( + 0 ( * Nl2x_5^01 1 ) ) ) ) 0 ) ( = ( + ( * ( - 1 ) lam9n1 ) ( * UndefCntr2_y_6^0 lam9n2 ) ( * Nl2y_6^01 lam9n3 ) ( * Nl2y_6^02 lam9n4 ) ( * Nl2y_6^03 lam9n5 ) ( - ( + 0 Nl2y_6^01 ) ) ) 0 ) ( = ( + ( * ( - 1 ) lam9n0 ) ( * UndefCntr2_undef30 lam9n2 ) ) 0 ) ) ))
(assert ( or ( and ( >= lam8n0 0 ) ( >= lam8n2 0 ) ( >= lam8n3 0 ) ( >= lam8n4 0 ) ( >= lam8n5 0 ) ( > ( + ( * 1 lam8n0 ) ( * UndefCntr2_CT lam8n2 ) ( * Nl2CT1 lam8n3 ) ( * Nl2CT2 lam8n4 ) ( * Nl2CT3 lam8n5 ) ( - 1 ) ) 0 ) ( = ( + ( * 1 lam8n1 ) ( * UndefCntr2_x_5^0 lam8n2 ) ( * Nl2x_5^01 lam8n3 ) ( * Nl2x_5^02 lam8n4 ) ( * Nl2x_5^03 lam8n5 ) ) 0 ) ( = ( + ( * ( - 1 ) lam8n1 ) ( * UndefCntr2_y_6^0 lam8n2 ) ( * Nl2y_6^01 lam8n3 ) ( * Nl2y_6^02 lam8n4 ) ( * Nl2y_6^03 lam8n5 ) ) 0 ) ( = ( + ( * ( - 1 ) lam8n0 ) ( * UndefCntr2_undef30 lam8n2 ) ) 0 ) ) ( and ( >= lam10n0 0 ) ( >= lam10n2 0 ) ( >= lam10n3 0 ) ( >= lam10n4 0 ) ( >= lam10n5 0 ) ( > ( + ( * 1 lam10n0 ) ( * UndefCntr2_CT lam10n2 ) ( * Nl2CT1 lam10n3 ) ( * Nl2CT2 lam10n4 ) ( * Nl2CT3 lam10n5 ) ( - 1 ( + Nl2CT2 ( * Nl2x_5^02 1 ) ) ) ) 0 ) ( = ( + ( * 1 lam10n1 ) ( * UndefCntr2_x_5^0 lam10n2 ) ( * Nl2x_5^01 lam10n3 ) ( * Nl2x_5^02 lam10n4 ) ( * Nl2x_5^03 lam10n5 ) ( - ( + 0 ( * Nl2x_5^02 1 ) ) ) ) 0 ) ( = ( + ( * ( - 1 ) lam10n1 ) ( * UndefCntr2_y_6^0 lam10n2 ) ( * Nl2y_6^01 lam10n3 ) ( * Nl2y_6^02 lam10n4 ) ( * Nl2y_6^03 lam10n5 ) ( - ( + 0 Nl2y_6^02 ) ) ) 0 ) ( = ( + ( * ( - 1 ) lam10n0 ) ( * UndefCntr2_undef30 lam10n2 ) ) 0 ) ) ))
(assert ( or ( and ( >= lam8n0 0 ) ( >= lam8n2 0 ) ( >= lam8n3 0 ) ( >= lam8n4 0 ) ( >= lam8n5 0 ) ( > ( + ( * 1 lam8n0 ) ( * UndefCntr2_CT lam8n2 ) ( * Nl2CT1 lam8n3 ) ( * Nl2CT2 lam8n4 ) ( * Nl2CT3 lam8n5 ) ( - 1 ) ) 0 ) ( = ( + ( * 1 lam8n1 ) ( * UndefCntr2_x_5^0 lam8n2 ) ( * Nl2x_5^01 lam8n3 ) ( * Nl2x_5^02 lam8n4 ) ( * Nl2x_5^03 lam8n5 ) ) 0 ) ( = ( + ( * ( - 1 ) lam8n1 ) ( * UndefCntr2_y_6^0 lam8n2 ) ( * Nl2y_6^01 lam8n3 ) ( * Nl2y_6^02 lam8n4 ) ( * Nl2y_6^03 lam8n5 ) ) 0 ) ( = ( + ( * ( - 1 ) lam8n0 ) ( * UndefCntr2_undef30 lam8n2 ) ) 0 ) ) ( and ( >= lam11n0 0 ) ( >= lam11n2 0 ) ( >= lam11n3 0 ) ( >= lam11n4 0 ) ( >= lam11n5 0 ) ( > ( + ( * 1 lam11n0 ) ( * UndefCntr2_CT lam11n2 ) ( * Nl2CT1 lam11n3 ) ( * Nl2CT2 lam11n4 ) ( * Nl2CT3 lam11n5 ) ( - 1 ( + Nl2CT3 ( * Nl2x_5^03 1 ) ) ) ) 0 ) ( = ( + ( * 1 lam11n1 ) ( * UndefCntr2_x_5^0 lam11n2 ) ( * Nl2x_5^01 lam11n3 ) ( * Nl2x_5^02 lam11n4 ) ( * Nl2x_5^03 lam11n5 ) ( - ( + 0 ( * Nl2x_5^03 1 ) ) ) ) 0 ) ( = ( + ( * ( - 1 ) lam11n1 ) ( * UndefCntr2_y_6^0 lam11n2 ) ( * Nl2y_6^01 lam11n3 ) ( * Nl2y_6^02 lam11n4 ) ( * Nl2y_6^03 lam11n5 ) ( - ( + 0 Nl2y_6^03 ) ) ) 0 ) ( = ( + ( * ( - 1 ) lam11n0 ) ( * UndefCntr2_undef30 lam11n2 ) ) 0 ) ) ))
(assert ( or ( and ( >= lam12n0 0 ) ( >= lam12n2 0 ) ( >= lam12n3 0 ) ( >= lam12n4 0 ) ( >= lam12n5 0 ) ( > ( + ( * 1 lam12n0 ) ( * UndefCntr3_CT lam12n2 ) ( * Nl2CT1 lam12n3 ) ( * Nl2CT2 lam12n4 ) ( * Nl2CT3 lam12n5 ) ( - 1 ) ) 0 ) ( = ( + ( * 1 lam12n0 ) ( * UndefCntr3_x_5^0 lam12n2 ) ( * Nl2x_5^01 lam12n3 ) ( * Nl2x_5^02 lam12n4 ) ( * Nl2x_5^03 lam12n5 ) ) 0 ) ( = ( + ( * ( - 1 ) lam12n0 ) ( * UndefCntr3_y_6^0 lam12n2 ) ( * Nl2y_6^01 lam12n3 ) ( * Nl2y_6^02 lam12n4 ) ( * Nl2y_6^03 lam12n5 ) ) 0 ) ( = ( + ( * 1 lam12n1 ) ( * UndefCntr3_undef50 lam12n2 ) ) 0 ) ) ( and ( >= lam13n0 0 ) ( >= lam13n2 0 ) ( >= lam13n3 0 ) ( >= lam13n4 0 ) ( >= lam13n5 0 ) ( > ( + ( * 1 lam13n0 ) ( * UndefCntr3_CT lam13n2 ) ( * Nl2CT1 lam13n3 ) ( * Nl2CT2 lam13n4 ) ( * Nl2CT3 lam13n5 ) ( - 1 Nl2CT1 ) ) 0 ) ( = ( + ( * 1 lam13n0 ) ( * UndefCntr3_x_5^0 lam13n2 ) ( * Nl2x_5^01 lam13n3 ) ( * Nl2x_5^02 lam13n4 ) ( * Nl2x_5^03 lam13n5 ) ( - ( + 0 Nl2x_5^01 ) ) ) 0 ) ( = ( + ( * ( - 1 ) lam13n0 ) ( * UndefCntr3_y_6^0 lam13n2 ) ( * Nl2y_6^01 lam13n3 ) ( * Nl2y_6^02 lam13n4 ) ( * Nl2y_6^03 lam13n5 ) ( - ( + 0 Nl2y_6^01 ) ) ) 0 ) ( = ( + ( * 1 lam13n1 ) ( * UndefCntr3_undef50 lam13n2 ) ) 0 ) ) ))
(assert ( or ( and ( >= lam12n0 0 ) ( >= lam12n2 0 ) ( >= lam12n3 0 ) ( >= lam12n4 0 ) ( >= lam12n5 0 ) ( > ( + ( * 1 lam12n0 ) ( * UndefCntr3_CT lam12n2 ) ( * Nl2CT1 lam12n3 ) ( * Nl2CT2 lam12n4 ) ( * Nl2CT3 lam12n5 ) ( - 1 ) ) 0 ) ( = ( + ( * 1 lam12n0 ) ( * UndefCntr3_x_5^0 lam12n2 ) ( * Nl2x_5^01 lam12n3 ) ( * Nl2x_5^02 lam12n4 ) ( * Nl2x_5^03 lam12n5 ) ) 0 ) ( = ( + ( * ( - 1 ) lam12n0 ) ( * UndefCntr3_y_6^0 lam12n2 ) ( * Nl2y_6^01 lam12n3 ) ( * Nl2y_6^02 lam12n4 ) ( * Nl2y_6^03 lam12n5 ) ) 0 ) ( = ( + ( * 1 lam12n1 ) ( * UndefCntr3_undef50 lam12n2 ) ) 0 ) ) ( and ( >= lam14n0 0 ) ( >= lam14n2 0 ) ( >= lam14n3 0 ) ( >= lam14n4 0 ) ( >= lam14n5 0 ) ( > ( + ( * 1 lam14n0 ) ( * UndefCntr3_CT lam14n2 ) ( * Nl2CT1 lam14n3 ) ( * Nl2CT2 lam14n4 ) ( * Nl2CT3 lam14n5 ) ( - 1 Nl2CT2 ) ) 0 ) ( = ( + ( * 1 lam14n0 ) ( * UndefCntr3_x_5^0 lam14n2 ) ( * Nl2x_5^01 lam14n3 ) ( * Nl2x_5^02 lam14n4 ) ( * Nl2x_5^03 lam14n5 ) ( - ( + 0 Nl2x_5^02 ) ) ) 0 ) ( = ( + ( * ( - 1 ) lam14n0 ) ( * UndefCntr3_y_6^0 lam14n2 ) ( * Nl2y_6^01 lam14n3 ) ( * Nl2y_6^02 lam14n4 ) ( * Nl2y_6^03 lam14n5 ) ( - ( + 0 Nl2y_6^02 ) ) ) 0 ) ( = ( + ( * 1 lam14n1 ) ( * UndefCntr3_undef50 lam14n2 ) ) 0 ) ) ))
(assert ( or ( and ( >= lam12n0 0 ) ( >= lam12n2 0 ) ( >= lam12n3 0 ) ( >= lam12n4 0 ) ( >= lam12n5 0 ) ( > ( + ( * 1 lam12n0 ) ( * UndefCntr3_CT lam12n2 ) ( * Nl2CT1 lam12n3 ) ( * Nl2CT2 lam12n4 ) ( * Nl2CT3 lam12n5 ) ( - 1 ) ) 0 ) ( = ( + ( * 1 lam12n0 ) ( * UndefCntr3_x_5^0 lam12n2 ) ( * Nl2x_5^01 lam12n3 ) ( * Nl2x_5^02 lam12n4 ) ( * Nl2x_5^03 lam12n5 ) ) 0 ) ( = ( + ( * ( - 1 ) lam12n0 ) ( * UndefCntr3_y_6^0 lam12n2 ) ( * Nl2y_6^01 lam12n3 ) ( * Nl2y_6^02 lam12n4 ) ( * Nl2y_6^03 lam12n5 ) ) 0 ) ( = ( + ( * 1 lam12n1 ) ( * UndefCntr3_undef50 lam12n2 ) ) 0 ) ) ( and ( >= lam15n0 0 ) ( >= lam15n2 0 ) ( >= lam15n3 0 ) ( >= lam15n4 0 ) ( >= lam15n5 0 ) ( > ( + ( * 1 lam15n0 ) ( * UndefCntr3_CT lam15n2 ) ( * Nl2CT1 lam15n3 ) ( * Nl2CT2 lam15n4 ) ( * Nl2CT3 lam15n5 ) ( - 1 Nl2CT3 ) ) 0 ) ( = ( + ( * 1 lam15n0 ) ( * UndefCntr3_x_5^0 lam15n2 ) ( * Nl2x_5^01 lam15n3 ) ( * Nl2x_5^02 lam15n4 ) ( * Nl2x_5^03 lam15n5 ) ( - ( + 0 Nl2x_5^03 ) ) ) 0 ) ( = ( + ( * ( - 1 ) lam15n0 ) ( * UndefCntr3_y_6^0 lam15n2 ) ( * Nl2y_6^01 lam15n3 ) ( * Nl2y_6^02 lam15n4 ) ( * Nl2y_6^03 lam15n5 ) ( - ( + 0 Nl2y_6^03 ) ) ) 0 ) ( = ( + ( * 1 lam15n1 ) ( * UndefCntr3_undef50 lam15n2 ) ) 0 ) ) ))
(assert ( or ( and ( >= lam16n0 0 ) ( >= lam16n1 0 ) ( >= lam16n2 0 ) ( >= lam16n3 0 ) ( >= lam16n4 0 ) ( >= lam16n5 0 ) ( > ( + ( * 1 lam16n0 ) ( * 1 lam16n1 ) ( * UndefCntr4_CT lam16n2 ) ( * Nl2CT1 lam16n3 ) ( * Nl2CT2 lam16n4 ) ( * Nl2CT3 lam16n5 ) ( - 1 ) ) 0 ) ( = ( + ( * 1 lam16n0 ) ( * UndefCntr4_x_5^0 lam16n2 ) ( * Nl2x_5^01 lam16n3 ) ( * Nl2x_5^02 lam16n4 ) ( * Nl2x_5^03 lam16n5 ) ) 0 ) ( = ( + ( * ( - 1 ) lam16n0 ) ( * UndefCntr4_y_6^0 lam16n2 ) ( * Nl2y_6^01 lam16n3 ) ( * Nl2y_6^02 lam16n4 ) ( * Nl2y_6^03 lam16n5 ) ) 0 ) ( = ( + ( * 1 lam16n1 ) ( * UndefCntr4_undef58 lam16n2 ) ) 0 ) ) ( and ( >= lam17n0 0 ) ( >= lam17n1 0 ) ( >= lam17n2 0 ) ( >= lam17n3 0 ) ( >= lam17n4 0 ) ( >= lam17n5 0 ) ( > ( + ( * 1 lam17n0 ) ( * 1 lam17n1 ) ( * UndefCntr4_CT lam17n2 ) ( * Nl2CT1 lam17n3 ) ( * Nl2CT2 lam17n4 ) ( * Nl2CT3 lam17n5 ) ( - 1 ( + Nl2CT1 ( * Nl2x_5^01 1 ) ) ) ) 0 ) ( = ( + ( * 1 lam17n0 ) ( * UndefCntr4_x_5^0 lam17n2 ) ( * Nl2x_5^01 lam17n3 ) ( * Nl2x_5^02 lam17n4 ) ( * Nl2x_5^03 lam17n5 ) ( - ( + 0 ( * Nl2x_5^01 1 ) ) ) ) 0 ) ( = ( + ( * ( - 1 ) lam17n0 ) ( * UndefCntr4_y_6^0 lam17n2 ) ( * Nl2y_6^01 lam17n3 ) ( * Nl2y_6^02 lam17n4 ) ( * Nl2y_6^03 lam17n5 ) ( - ( + 0 Nl2y_6^01 ) ) ) 0 ) ( = ( + ( * 1 lam17n1 ) ( * UndefCntr4_undef58 lam17n2 ) ) 0 ) ) ))
(assert ( or ( and ( >= lam16n0 0 ) ( >= lam16n1 0 ) ( >= lam16n2 0 ) ( >= lam16n3 0 ) ( >= lam16n4 0 ) ( >= lam16n5 0 ) ( > ( + ( * 1 lam16n0 ) ( * 1 lam16n1 ) ( * UndefCntr4_CT lam16n2 ) ( * Nl2CT1 lam16n3 ) ( * Nl2CT2 lam16n4 ) ( * Nl2CT3 lam16n5 ) ( - 1 ) ) 0 ) ( = ( + ( * 1 lam16n0 ) ( * UndefCntr4_x_5^0 lam16n2 ) ( * Nl2x_5^01 lam16n3 ) ( * Nl2x_5^02 lam16n4 ) ( * Nl2x_5^03 lam16n5 ) ) 0 ) ( = ( + ( * ( - 1 ) lam16n0 ) ( * UndefCntr4_y_6^0 lam16n2 ) ( * Nl2y_6^01 lam16n3 ) ( * Nl2y_6^02 lam16n4 ) ( * Nl2y_6^03 lam16n5 ) ) 0 ) ( = ( + ( * 1 lam16n1 ) ( * UndefCntr4_undef58 lam16n2 ) ) 0 ) ) ( and ( >= lam18n0 0 ) ( >= lam18n1 0 ) ( >= lam18n2 0 ) ( >= lam18n3 0 ) ( >= lam18n4 0 ) ( >= lam18n5 0 ) ( > ( + ( * 1 lam18n0 ) ( * 1 lam18n1 ) ( * UndefCntr4_CT lam18n2 ) ( * Nl2CT1 lam18n3 ) ( * Nl2CT2 lam18n4 ) ( * Nl2CT3 lam18n5 ) ( - 1 ( + Nl2CT2 ( * Nl2x_5^02 1 ) ) ) ) 0 ) ( = ( + ( * 1 lam18n0 ) ( * UndefCntr4_x_5^0 lam18n2 ) ( * Nl2x_5^01 lam18n3 ) ( * Nl2x_5^02 lam18n4 ) ( * Nl2x_5^03 lam18n5 ) ( - ( + 0 ( * Nl2x_5^02 1 ) ) ) ) 0 ) ( = ( + ( * ( - 1 ) lam18n0 ) ( * UndefCntr4_y_6^0 lam18n2 ) ( * Nl2y_6^01 lam18n3 ) ( * Nl2y_6^02 lam18n4 ) ( * Nl2y_6^03 lam18n5 ) ( - ( + 0 Nl2y_6^02 ) ) ) 0 ) ( = ( + ( * 1 lam18n1 ) ( * UndefCntr4_undef58 lam18n2 ) ) 0 ) ) ))
(assert ( or ( and ( >= lam16n0 0 ) ( >= lam16n1 0 ) ( >= lam16n2 0 ) ( >= lam16n3 0 ) ( >= lam16n4 0 ) ( >= lam16n5 0 ) ( > ( + ( * 1 lam16n0 ) ( * 1 lam16n1 ) ( * UndefCntr4_CT lam16n2 ) ( * Nl2CT1 lam16n3 ) ( * Nl2CT2 lam16n4 ) ( * Nl2CT3 lam16n5 ) ( - 1 ) ) 0 ) ( = ( + ( * 1 lam16n0 ) ( * UndefCntr4_x_5^0 lam16n2 ) ( * Nl2x_5^01 lam16n3 ) ( * Nl2x_5^02 lam16n4 ) ( * Nl2x_5^03 lam16n5 ) ) 0 ) ( = ( + ( * ( - 1 ) lam16n0 ) ( * UndefCntr4_y_6^0 lam16n2 ) ( * Nl2y_6^01 lam16n3 ) ( * Nl2y_6^02 lam16n4 ) ( * Nl2y_6^03 lam16n5 ) ) 0 ) ( = ( + ( * 1 lam16n1 ) ( * UndefCntr4_undef58 lam16n2 ) ) 0 ) ) ( and ( >= lam19n0 0 ) ( >= lam19n1 0 ) ( >= lam19n2 0 ) ( >= lam19n3 0 ) ( >= lam19n4 0 ) ( >= lam19n5 0 ) ( > ( + ( * 1 lam19n0 ) ( * 1 lam19n1 ) ( * UndefCntr4_CT lam19n2 ) ( * Nl2CT1 lam19n3 ) ( * Nl2CT2 lam19n4 ) ( * Nl2CT3 lam19n5 ) ( - 1 ( + Nl2CT3 ( * Nl2x_5^03 1 ) ) ) ) 0 ) ( = ( + ( * 1 lam19n0 ) ( * UndefCntr4_x_5^0 lam19n2 ) ( * Nl2x_5^01 lam19n3 ) ( * Nl2x_5^02 lam19n4 ) ( * Nl2x_5^03 lam19n5 ) ( - ( + 0 ( * Nl2x_5^03 1 ) ) ) ) 0 ) ( = ( + ( * ( - 1 ) lam19n0 ) ( * UndefCntr4_y_6^0 lam19n2 ) ( * Nl2y_6^01 lam19n3 ) ( * Nl2y_6^02 lam19n4 ) ( * Nl2y_6^03 lam19n5 ) ( - ( + 0 Nl2y_6^03 ) ) ) 0 ) ( = ( + ( * 1 lam19n1 ) ( * UndefCntr4_undef58 lam19n2 ) ) 0 ) ) ))
(assert ( or ( and ( >= lam20n0 0 ) ( >= lam20n1 0 ) ( >= lam20n2 0 ) ( >= lam20n3 0 ) ( >= lam20n4 0 ) ( >= lam20n5 0 ) ( > ( + ( * 1 lam20n0 ) ( * 1 lam20n1 ) ( * UndefCntr5_CT lam20n2 ) ( * Nl2CT1 lam20n3 ) ( * Nl2CT2 lam20n4 ) ( * Nl2CT3 lam20n5 ) ( - 1 ) ) 0 ) ( = ( + ( * 1 lam20n0 ) ( * UndefCntr5_x_5^0 lam20n2 ) ( * Nl2x_5^01 lam20n3 ) ( * Nl2x_5^02 lam20n4 ) ( * Nl2x_5^03 lam20n5 ) ) 0 ) ( = ( + ( * ( - 1 ) lam20n0 ) ( * UndefCntr5_y_6^0 lam20n2 ) ( * Nl2y_6^01 lam20n3 ) ( * Nl2y_6^02 lam20n4 ) ( * Nl2y_6^03 lam20n5 ) ) 0 ) ( = ( + ( * ( - 1 ) lam20n1 ) ( * UndefCntr5_undef58 lam20n2 ) ) 0 ) ) ( and ( >= lam21n0 0 ) ( >= lam21n1 0 ) ( >= lam21n2 0 ) ( >= lam21n3 0 ) ( >= lam21n4 0 ) ( >= lam21n5 0 ) ( > ( + ( * 1 lam21n0 ) ( * 1 lam21n1 ) ( * UndefCntr5_CT lam21n2 ) ( * Nl2CT1 lam21n3 ) ( * Nl2CT2 lam21n4 ) ( * Nl2CT3 lam21n5 ) ( - 1 ( + Nl2CT1 ( * Nl2x_5^01 1 ) ) ) ) 0 ) ( = ( + ( * 1 lam21n0 ) ( * UndefCntr5_x_5^0 lam21n2 ) ( * Nl2x_5^01 lam21n3 ) ( * Nl2x_5^02 lam21n4 ) ( * Nl2x_5^03 lam21n5 ) ( - ( + 0 ( * Nl2x_5^01 1 ) ) ) ) 0 ) ( = ( + ( * ( - 1 ) lam21n0 ) ( * UndefCntr5_y_6^0 lam21n2 ) ( * Nl2y_6^01 lam21n3 ) ( * Nl2y_6^02 lam21n4 ) ( * Nl2y_6^03 lam21n5 ) ( - ( + 0 Nl2y_6^01 ) ) ) 0 ) ( = ( + ( * ( - 1 ) lam21n1 ) ( * UndefCntr5_undef58 lam21n2 ) ) 0 ) ) ))
(assert ( or ( and ( >= lam20n0 0 ) ( >= lam20n1 0 ) ( >= lam20n2 0 ) ( >= lam20n3 0 ) ( >= lam20n4 0 ) ( >= lam20n5 0 ) ( > ( + ( * 1 lam20n0 ) ( * 1 lam20n1 ) ( * UndefCntr5_CT lam20n2 ) ( * Nl2CT1 lam20n3 ) ( * Nl2CT2 lam20n4 ) ( * Nl2CT3 lam20n5 ) ( - 1 ) ) 0 ) ( = ( + ( * 1 lam20n0 ) ( * UndefCntr5_x_5^0 lam20n2 ) ( * Nl2x_5^01 lam20n3 ) ( * Nl2x_5^02 lam20n4 ) ( * Nl2x_5^03 lam20n5 ) ) 0 ) ( = ( + ( * ( - 1 ) lam20n0 ) ( * UndefCntr5_y_6^0 lam20n2 ) ( * Nl2y_6^01 lam20n3 ) ( * Nl2y_6^02 lam20n4 ) ( * Nl2y_6^03 lam20n5 ) ) 0 ) ( = ( + ( * ( - 1 ) lam20n1 ) ( * UndefCntr5_undef58 lam20n2 ) ) 0 ) ) ( and ( >= lam22n0 0 ) ( >= lam22n1 0 ) ( >= lam22n2 0 ) ( >= lam22n3 0 ) ( >= lam22n4 0 ) ( >= lam22n5 0 ) ( > ( + ( * 1 lam22n0 ) ( * 1 lam22n1 ) ( * UndefCntr5_CT lam22n2 ) ( * Nl2CT1 lam22n3 ) ( * Nl2CT2 lam22n4 ) ( * Nl2CT3 lam22n5 ) ( - 1 ( + Nl2CT2 ( * Nl2x_5^02 1 ) ) ) ) 0 ) ( = ( + ( * 1 lam22n0 ) ( * UndefCntr5_x_5^0 lam22n2 ) ( * Nl2x_5^01 lam22n3 ) ( * Nl2x_5^02 lam22n4 ) ( * Nl2x_5^03 lam22n5 ) ( - ( + 0 ( * Nl2x_5^02 1 ) ) ) ) 0 ) ( = ( + ( * ( - 1 ) lam22n0 ) ( * UndefCntr5_y_6^0 lam22n2 ) ( * Nl2y_6^01 lam22n3 ) ( * Nl2y_6^02 lam22n4 ) ( * Nl2y_6^03 lam22n5 ) ( - ( + 0 Nl2y_6^02 ) ) ) 0 ) ( = ( + ( * ( - 1 ) lam22n1 ) ( * UndefCntr5_undef58 lam22n2 ) ) 0 ) ) ))
(assert ( or ( and ( >= lam20n0 0 ) ( >= lam20n1 0 ) ( >= lam20n2 0 ) ( >= lam20n3 0 ) ( >= lam20n4 0 ) ( >= lam20n5 0 ) ( > ( + ( * 1 lam20n0 ) ( * 1 lam20n1 ) ( * UndefCntr5_CT lam20n2 ) ( * Nl2CT1 lam20n3 ) ( * Nl2CT2 lam20n4 ) ( * Nl2CT3 lam20n5 ) ( - 1 ) ) 0 ) ( = ( + ( * 1 lam20n0 ) ( * UndefCntr5_x_5^0 lam20n2 ) ( * Nl2x_5^01 lam20n3 ) ( * Nl2x_5^02 lam20n4 ) ( * Nl2x_5^03 lam20n5 ) ) 0 ) ( = ( + ( * ( - 1 ) lam20n0 ) ( * UndefCntr5_y_6^0 lam20n2 ) ( * Nl2y_6^01 lam20n3 ) ( * Nl2y_6^02 lam20n4 ) ( * Nl2y_6^03 lam20n5 ) ) 0 ) ( = ( + ( * ( - 1 ) lam20n1 ) ( * UndefCntr5_undef58 lam20n2 ) ) 0 ) ) ( and ( >= lam23n0 0 ) ( >= lam23n1 0 ) ( >= lam23n2 0 ) ( >= lam23n3 0 ) ( >= lam23n4 0 ) ( >= lam23n5 0 ) ( > ( + ( * 1 lam23n0 ) ( * 1 lam23n1 ) ( * UndefCntr5_CT lam23n2 ) ( * Nl2CT1 lam23n3 ) ( * Nl2CT2 lam23n4 ) ( * Nl2CT3 lam23n5 ) ( - 1 ( + Nl2CT3 ( * Nl2x_5^03 1 ) ) ) ) 0 ) ( = ( + ( * 1 lam23n0 ) ( * UndefCntr5_x_5^0 lam23n2 ) ( * Nl2x_5^01 lam23n3 ) ( * Nl2x_5^02 lam23n4 ) ( * Nl2x_5^03 lam23n5 ) ( - ( + 0 ( * Nl2x_5^03 1 ) ) ) ) 0 ) ( = ( + ( * ( - 1 ) lam23n0 ) ( * UndefCntr5_y_6^0 lam23n2 ) ( * Nl2y_6^01 lam23n3 ) ( * Nl2y_6^02 lam23n4 ) ( * Nl2y_6^03 lam23n5 ) ( - ( + 0 Nl2y_6^03 ) ) ) 0 ) ( = ( + ( * ( - 1 ) lam23n1 ) ( * UndefCntr5_undef58 lam23n2 ) ) 0 ) ) ))
(assert ( and ( <= ( + Nl2CT1 ( * Nl2x_5^01 FV_x_5^0_6 ) ( * Nl2y_6^01 FV_y_6^0_6 ) ) 0 ) ( <= ( + Nl2CT2 ( * Nl2x_5^02 FV_x_5^0_6 ) ( * Nl2y_6^02 FV_y_6^0_6 ) ) 0 ) ( <= ( + Nl2CT3 ( * Nl2x_5^03 FV_x_5^0_6 ) ( * Nl2y_6^03 FV_y_6^0_6 ) ) 0 ) ))
(assert ( or ( not ( = UndefCntr0_x_5^0 0 ) ) ( not ( = UndefCntr0_y_6^0 0 ) ) ( not ( = UndefCntr0_undef22 0 ) ) ( = UndefCntr0_CT 0 ) ))
(assert ( or ( and ( = UndefCntr0_x_5^0 0 ) ( = UndefCntr0_y_6^0 0 ) ) ( not ( = UndefCntr0_undef22 0 ) ) ))
(assert ( or ( not ( = UndefCntr1_x_5^0 0 ) ) ( not ( = UndefCntr1_y_6^0 0 ) ) ( not ( = UndefCntr1_undef30 0 ) ) ( = UndefCntr1_CT 0 ) ))
(assert ( or ( and ( = UndefCntr1_x_5^0 0 ) ( = UndefCntr1_y_6^0 0 ) ) ( not ( = UndefCntr1_undef30 0 ) ) ))
(assert ( or ( not ( = UndefCntr2_x_5^0 0 ) ) ( not ( = UndefCntr2_y_6^0 0 ) ) ( not ( = UndefCntr2_undef30 0 ) ) ( = UndefCntr2_CT 0 ) ))
(assert ( or ( and ( = UndefCntr2_x_5^0 0 ) ( = UndefCntr2_y_6^0 0 ) ) ( not ( = UndefCntr2_undef30 0 ) ) ))
(assert ( or ( not ( = UndefCntr3_x_5^0 0 ) ) ( not ( = UndefCntr3_y_6^0 0 ) ) ( not ( = UndefCntr3_undef50 0 ) ) ( = UndefCntr3_CT 0 ) ))
(assert ( or ( and ( = UndefCntr3_x_5^0 0 ) ( = UndefCntr3_y_6^0 0 ) ) ( not ( = UndefCntr3_undef50 0 ) ) ))
(assert ( or ( not ( = UndefCntr4_x_5^0 0 ) ) ( not ( = UndefCntr4_y_6^0 0 ) ) ( not ( = UndefCntr4_undef58 0 ) ) ( = UndefCntr4_CT 0 ) ))
(assert ( or ( and ( = UndefCntr4_x_5^0 0 ) ( = UndefCntr4_y_6^0 0 ) ) ( not ( = UndefCntr4_undef58 0 ) ) ))
(assert ( or ( not ( = UndefCntr5_x_5^0 0 ) ) ( not ( = UndefCntr5_y_6^0 0 ) ) ( not ( = UndefCntr5_undef58 0 ) ) ( = UndefCntr5_CT 0 ) ))
(assert ( or ( and ( = UndefCntr5_x_5^0 0 ) ( = UndefCntr5_y_6^0 0 ) ) ( not ( = UndefCntr5_undef58 0 ) ) ))
(assert ( or ( = UndefCntr0_undef22 0 ) ( and ( and ( = UndefCntr0_x_5^0 0 ) ( = UndefCntr0_y_6^0 0 ) ) ( or ( and ( = FV_undef22_0 0 ) ( <= ( + UndefCntr0_CT ( * UndefCntr0_undef22 FV_undef22_0 ) ( * UndefCntr0_x_5^0 FV_x_5^0_0 ) ( * UndefCntr0_y_6^0 FV_y_6^0_0 ) ) 0 ) ) ( and ( = FV_undef22_0 0 ) ( <= ( + UndefCntr0_CT ( * UndefCntr0_undef22 FV_undef22_0 ) ( * UndefCntr0_x_5^0 FV_x_5^0_0 ) ( * UndefCntr0_y_6^0 FV_y_6^0_0 ) ) 0 ) ) ) ) ))
(assert ( or ( = UndefCntr1_undef30 0 ) ( and ( and ( = UndefCntr1_x_5^0 0 ) ( = UndefCntr1_y_6^0 0 ) ) ( or ( and ( <= ( + 1 FV_undef30_1 ) 0 ) ( <= ( + UndefCntr1_CT ( * UndefCntr1_undef30 FV_undef30_1 ) ( * UndefCntr1_x_5^0 FV_x_5^0_1 ) ( * UndefCntr1_y_6^0 FV_y_6^0_1 ) ) 0 ) ) ( and ( and ( = UndefCntr1_undef30 UndefCntr2_undef30 ) ( = UndefCntr1_CT UndefCntr2_CT ) ) ( or ( and ( <= ( + 1 FV_undef30_1 ) 0 ) ( <= ( + UndefCntr1_CT ( * UndefCntr1_undef30 FV_undef30_1 ) ( * UndefCntr1_x_5^0 FV_x_5^0_1 ) ( * UndefCntr1_y_6^0 FV_y_6^0_1 ) ) 0 ) ) ( and ( <= ( + 1 ( * ( - 1 ) FV_undef30_2 ) ) 0 ) ( <= ( + UndefCntr2_CT ( * UndefCntr2_undef30 FV_undef30_2 ) ( * UndefCntr2_x_5^0 FV_x_5^0_2 ) ( * UndefCntr2_y_6^0 FV_y_6^0_2 ) ) 0 ) ) ) ) ) ) ))
(assert ( or ( = UndefCntr2_undef30 0 ) ( and ( and ( = UndefCntr2_x_5^0 0 ) ( = UndefCntr2_y_6^0 0 ) ) ( or ( and ( <= ( + 1 ( * ( - 1 ) FV_undef30_2 ) ) 0 ) ( <= ( + UndefCntr2_CT ( * UndefCntr2_undef30 FV_undef30_2 ) ( * UndefCntr2_x_5^0 FV_x_5^0_2 ) ( * UndefCntr2_y_6^0 FV_y_6^0_2 ) ) 0 ) ) ( and ( and ( = UndefCntr1_undef30 UndefCntr2_undef30 ) ( = UndefCntr1_CT UndefCntr2_CT ) ) ( or ( and ( <= ( + 1 FV_undef30_1 ) 0 ) ( <= ( + UndefCntr1_CT ( * UndefCntr1_undef30 FV_undef30_1 ) ( * UndefCntr1_x_5^0 FV_x_5^0_1 ) ( * UndefCntr1_y_6^0 FV_y_6^0_1 ) ) 0 ) ) ( and ( <= ( + 1 ( * ( - 1 ) FV_undef30_2 ) ) 0 ) ( <= ( + UndefCntr2_CT ( * UndefCntr2_undef30 FV_undef30_2 ) ( * UndefCntr2_x_5^0 FV_x_5^0_2 ) ( * UndefCntr2_y_6^0 FV_y_6^0_2 ) ) 0 ) ) ) ) ) ) ))
(assert ( or ( = UndefCntr3_undef50 0 ) ( and ( and ( = UndefCntr3_x_5^0 0 ) ( = UndefCntr3_y_6^0 0 ) ) ( or ( and ( = FV_undef50_3 0 ) ( <= ( + UndefCntr3_CT ( * UndefCntr3_undef50 FV_undef50_3 ) ( * UndefCntr3_x_5^0 FV_x_5^0_3 ) ( * UndefCntr3_y_6^0 FV_y_6^0_3 ) ) 0 ) ) ( and ( = FV_undef50_3 0 ) ( <= ( + UndefCntr3_CT ( * UndefCntr3_undef50 FV_undef50_3 ) ( * UndefCntr3_x_5^0 FV_x_5^0_3 ) ( * UndefCntr3_y_6^0 FV_y_6^0_3 ) ) 0 ) ) ) ) ))
(assert ( or ( = UndefCntr4_undef58 0 ) ( and ( and ( = UndefCntr4_x_5^0 0 ) ( = UndefCntr4_y_6^0 0 ) ) ( or ( and ( <= ( + 1 FV_undef58_4 ) 0 ) ( <= ( + UndefCntr4_CT ( * UndefCntr4_undef58 FV_undef58_4 ) ( * UndefCntr4_x_5^0 FV_x_5^0_4 ) ( * UndefCntr4_y_6^0 FV_y_6^0_4 ) ) 0 ) ) ( and ( and ( = UndefCntr4_undef58 UndefCntr5_undef58 ) ( = UndefCntr4_CT UndefCntr5_CT ) ) ( or ( and ( <= ( + 1 FV_undef58_4 ) 0 ) ( <= ( + UndefCntr4_CT ( * UndefCntr4_undef58 FV_undef58_4 ) ( * UndefCntr4_x_5^0 FV_x_5^0_4 ) ( * UndefCntr4_y_6^0 FV_y_6^0_4 ) ) 0 ) ) ( and ( <= ( + 1 ( * ( - 1 ) FV_undef58_5 ) ) 0 ) ( <= ( + UndefCntr5_CT ( * UndefCntr5_undef58 FV_undef58_5 ) ( * UndefCntr5_x_5^0 FV_x_5^0_5 ) ( * UndefCntr5_y_6^0 FV_y_6^0_5 ) ) 0 ) ) ) ) ) ) ))
(assert ( or ( = UndefCntr5_undef58 0 ) ( and ( and ( = UndefCntr5_x_5^0 0 ) ( = UndefCntr5_y_6^0 0 ) ) ( or ( and ( <= ( + 1 ( * ( - 1 ) FV_undef58_5 ) ) 0 ) ( <= ( + UndefCntr5_CT ( * UndefCntr5_undef58 FV_undef58_5 ) ( * UndefCntr5_x_5^0 FV_x_5^0_5 ) ( * UndefCntr5_y_6^0 FV_y_6^0_5 ) ) 0 ) ) ( and ( and ( = UndefCntr4_undef58 UndefCntr5_undef58 ) ( = UndefCntr4_CT UndefCntr5_CT ) ) ( or ( and ( <= ( + 1 FV_undef58_4 ) 0 ) ( <= ( + UndefCntr4_CT ( * UndefCntr4_undef58 FV_undef58_4 ) ( * UndefCntr4_x_5^0 FV_x_5^0_4 ) ( * UndefCntr4_y_6^0 FV_y_6^0_4 ) ) 0 ) ) ( and ( <= ( + 1 ( * ( - 1 ) FV_undef58_5 ) ) 0 ) ( <= ( + UndefCntr5_CT ( * UndefCntr5_undef58 FV_undef58_5 ) ( * UndefCntr5_x_5^0 FV_x_5^0_5 ) ( * UndefCntr5_y_6^0 FV_y_6^0_5 ) ) 0 ) ) ) ) ) ) ))
(assert ( and ( >= lam27n0 0 ) ( >= lam27n1 0 ) ( >= lam27n2 0 ) ( >= lam27n3 0 ) ( > ( + ( * 1 lam27n0 ) ( * Nl2CT1 lam27n1 ) ( * Nl2CT2 lam27n2 ) ( * Nl2CT3 lam27n3 ) ( - 1 ) ) 0 ) ( = ( + ( * ( - 1 ) lam27n0 ) ( * Nl2x_5^01 lam27n1 ) ( * Nl2x_5^02 lam27n2 ) ( * Nl2x_5^03 lam27n3 ) ) 0 ) ( = ( + ( * 1 lam27n0 ) ( * Nl2y_6^01 lam27n1 ) ( * Nl2y_6^02 lam27n2 ) ( * Nl2y_6^03 lam27n3 ) ) 0 ) ))
(assert ( and ( and ( <= ( + Nl2CT1 ( * Nl2x_5^01 FV_x_5^0_7 ) ( * Nl2y_6^01 FV_y_6^0_7 ) ) 0 ) ( <= ( + Nl2CT2 ( * Nl2x_5^02 FV_x_5^0_7 ) ( * Nl2y_6^02 FV_y_6^0_7 ) ) 0 ) ( <= ( + Nl2CT3 ( * Nl2x_5^03 FV_x_5^0_7 ) ( * Nl2y_6^03 FV_y_6^0_7 ) ) 0 ) ) ( or ( and ( = ( + FV_x_5^0_7 ( * ( - 1 ) FV_y_6^0_7 ) ) 0 ) ( = FV_undef22_7 0 ) ) ( and ( <= ( + 1 FV_undef30_7 ) 0 ) ( = ( + FV_x_5^0_7 ( * ( - 1 ) FV_y_6^0_7 ) ) 0 ) ) ( and ( <= ( + 1 ( * ( - 1 ) FV_undef30_7 ) ) 0 ) ( = ( + FV_x_5^0_7 ( * ( - 1 ) FV_y_6^0_7 ) ) 0 ) ) ( and ( <= ( + 1 FV_x_5^0_7 ( * ( - 1 ) FV_y_6^0_7 ) ) 0 ) ( = FV_undef50_7 0 ) ) ( and ( <= ( + 1 FV_x_5^0_7 ( * ( - 1 ) FV_y_6^0_7 ) ) 0 ) ( <= ( + 1 FV_undef58_7 ) 0 ) ) ( and ( <= ( + 1 FV_x_5^0_7 ( * ( - 1 ) FV_y_6^0_7 ) ) 0 ) ( <= ( + 1 ( * ( - 1 ) FV_undef58_7 ) ) 0 ) ) ) ))
(check-sat)
(exit)
